69 69
11 14
10 49
15 51
21 8
2 57
31 34
27 31
30 11
28 45
4 54
11 44
19 60
25 19
27 48
14 30
33 67
32 37
25 28
7 1
29 43
3 12
31 17
13 68
13 61
14 56
7 36
28 4
16 25
3 39
10 59
34 46
33 2
8 7
18 33
12 27
1 26
34 35
21 29
6 20
9 52
5 13
9 21
2 65
19 40
18 47
22 32
30 5
20 15
26 23
4 24
16 62
17 22
26 53
1 69
32 38
5 50
12 42
24 55
15 6
20 18
24 41
23 16
29 9
1 10
6 63
22 64
23 66
8 58
17 3
